Welcome to the CBC MILP Solver 
Version: Trunk
Build Date: Apr 16 2020 

Starting solution of the Linear programming relaxation problem using Primal Simplex

Using Python-MIP package version 1.8.1
Machines:  3 Jobs:  3
Order: 
Job  0 : machine 1 ( 7 ) machine 2 ( 7 ) machine 0 ( 1 ) 
Job  1 : machine 1 ( 4 ) machine 0 ( 3 ) machine 2 ( 7 ) 
Job  2 : machine 1 ( 7 ) machine 2 ( 6 ) machine 0 ( 2 ) 
K:  33
Job  0 , e: machine  0 ( 14 ) machine  1 ( 0 ) machine  2 ( 7 ) 
Job  1 , e: machine  0 ( 4 ) machine  1 ( 0 ) machine  2 ( 7 ) 
Job  2 , e: machine  0 ( 13 ) machine  1 ( 0 ) machine  2 ( 7 ) 
Job  0 , f: machine  0 ( 0 ) machine  1 ( 8 ) machine  2 ( 1 ) 
Job  1 , f: machine  0 ( 7 ) machine  1 ( 10 ) machine  2 ( 0 ) 
Job  2 , f: machine  0 ( 0 ) machine  1 ( 8 ) machine  2 ( 2 ) 
EST and LST:
Job: 0 Machine: 0 EST: 14 LST: 32
Job: 0 Machine: 1 EST: 0 LST: 18
Job: 0 Machine: 2 EST: 7 LST: 25
Job: 1 Machine: 0 EST: 4 LST: 23
Job: 1 Machine: 1 EST: 0 LST: 19
Job: 1 Machine: 2 EST: 7 LST: 26
Job: 2 Machine: 0 EST: 13 LST: 31
Job: 2 Machine: 1 EST: 0 LST: 18
Job: 2 Machine: 2 EST: 7 LST: 25
Order:
Job: 0 Machine: 0 = 2 
Job: 0 Machine: 1 = 0 
Job: 0 Machine: 2 = 1 
Job: 1 Machine: 0 = 1 
Job: 1 Machine: 1 = 0 
Job: 1 Machine: 2 = 2 
Job: 2 Machine: 0 = 2 
Job: 2 Machine: 1 = 0 
Job: 2 Machine: 2 = 1 
Distances:
Job 0, Machine 1 -> Machine 2: distance 7
Job 0, Machine 1 -> Machine 0: distance 14
Job 0, Machine 2 -> Machine 0: distance 7
Job 1, Machine 1 -> Machine 0: distance 4
Job 1, Machine 1 -> Machine 2: distance 7
Job 1, Machine 0 -> Machine 2: distance 3
Job 2, Machine 1 -> Machine 2: distance 7
Job 2, Machine 1 -> Machine 0: distance 13
Job 2, Machine 2 -> Machine 0: distance 6
McCormic linearization
[(0, 1), (1, 2), (0, 0), (0, 2), (2, 1), (2, 0), (2, 2), (1, 0), (1, 1)]
obj:  0.0
solutions:  1
+ 0.14285714285714285x(0,1) + 0.14285714285714285x(2,1) 
C:  18.5
x(0,0) = 17.50	 x(0,1) = 3.50	 x(0,2) = 10.50	 
x(1,0) = 8.50	 x(1,1) = 4.50	 x(1,2) = 11.50	 
x(2,0) = 16.50	 x(2,1) = 3.50	 x(2,2) = 10.50	 
y(0,1,0) = 0.00	 y(1,0,0) = 1.00	 
y(0,2,0) = 0.90	 y(2,0,0) = 0.10	 
y(1,2,0) = 0.59	 y(2,1,0) = 0.41	 
y(0,1,1) = 0.22	 y(1,0,1) = 0.78	 
y(0,2,1) = 0.50	 y(2,0,1) = 0.50	 
y(1,2,1) = 0.36	 y(2,1,1) = 0.64	 
y(0,1,2) = 0.50	 y(1,0,2) = 0.50	 
y(0,2,2) = 0.42	 y(2,0,2) = 0.58	 
y(1,2,2) = 0.50	 y(2,1,2) = 0.50	 
obj:  0.6380952380952382
solutions:  1
+ 0.06666666666666668x(0,1) + 0.03809523809523809x(1,1) + 0.06666666666666667x(2,1) 
[(0, 1), (1, 1), (2, 1)]
cliques:  1 mip: 20
C:  20.983660130718956
x(0,0) = 19.87	 x(0,1) = 5.87	 x(0,2) = 12.87	 
x(1,0) = 9.51	 x(1,1) = 5.51	 x(1,2) = 12.51	 
x(2,0) = 18.98	 x(2,1) = 5.98	 x(2,2) = 12.98	 
y(0,1,0) = 0.00	 y(1,0,0) = 1.00	 
y(0,2,0) = 0.06	 y(2,0,0) = 0.94	 
y(1,2,0) = 0.62	 y(2,1,0) = 0.38	 
y(0,1,1) = 0.71	 y(1,0,1) = 0.29	 
y(0,2,1) = 0.31	 y(2,0,1) = 0.69	 
y(1,2,1) = 0.30	 y(2,1,1) = 0.70	 
y(0,1,2) = 0.31	 y(1,0,2) = 0.69	 
y(0,2,2) = 0.25	 y(2,0,2) = 0.75	 
y(1,2,2) = 0.71	 y(2,1,2) = 0.29	 
obj:  0.936100936100936
solutions:  1
+ 0.025641025641025637x(1,2) + 0.02564102564102564x(0,2) + 0.021978021978021983x(2,2) 
[(0, 1), (1, 2), (0, 0), (0, 2), (2, 1), (2, 0), (2, 2), (1, 0), (1, 1)]
cliques:  1 mip: 52
C:  22.46394129979035
x(0,0) = 21.46	 x(0,1) = 7.46	 x(0,2) = 14.46	 
x(1,0) = 10.82	 x(1,1) = 3.56	 x(1,2) = 13.82	 
x(2,0) = 18.50	 x(2,1) = 5.50	 x(2,2) = 12.50	 
y(0,1,0) = 0.00	 y(1,0,0) = 1.00	 
y(0,2,0) = 0.00	 y(2,0,0) = 1.00	 
y(1,2,0) = 0.80	 y(2,1,0) = 0.20	 
y(0,1,1) = 0.02	 y(1,0,1) = 0.98	 
y(0,2,1) = 0.20	 y(2,0,1) = 0.80	 
y(1,2,1) = 0.74	 y(2,1,1) = 0.26	 
y(0,1,2) = 0.24	 y(1,0,2) = 0.76	 
y(0,2,2) = 0.64	 y(2,0,2) = 0.36	 
y(1,2,2) = 0.48	 y(2,1,2) = 0.52	 
obj:  1.0
erro
[(1, 2), (0, 1), (0, 0), (0, 2), (2, 1), (2, 0), (2, 2), (1, 0), (1, 1)]
cliques:  0 mip: 48
C:  23.438914149548786
x(0,0) = 22.44	 x(0,1) = 4.13	 x(0,2) = 11.13	 
x(1,0) = 13.44	 x(1,1) = 8.18	 x(1,2) = 16.44	 
x(2,0) = 19.33	 x(2,1) = 6.19	 x(2,2) = 13.33	 
y(0,1,0) = 0.00	 y(1,0,0) = 1.00	 
y(0,2,0) = 0.00	 y(2,0,0) = 1.00	 
y(1,2,0) = 0.99	 y(2,1,0) = 0.01	 
y(0,1,1) = 0.75	 y(1,0,1) = 0.25	 
y(0,2,1) = 0.70	 y(2,0,1) = 0.30	 
y(1,2,1) = 0.73	 y(2,1,1) = 0.27	 
y(0,1,2) = 0.93	 y(1,0,2) = 0.07	 
y(0,2,2) = 0.61	 y(2,0,2) = 0.39	 
y(1,2,2) = 0.61	 y(2,1,2) = 0.39	 
obj:  1.0000000000000002
erro
[(1, 2), (0, 1), (0, 0), (0, 2), (2, 1), (2, 0), (2, 2), (1, 0), (1, 1)]
cliques:  0 mip: 41
C:  24.0
x(0,0) = 23.00	 x(0,1) = 5.93	 x(0,2) = 12.93	 
x(1,0) = 14.00	 x(1,1) = 7.78	 x(1,2) = 17.00	 
x(2,0) = 18.93	 x(2,1) = 5.47	 x(2,2) = 12.93	 
y(0,1,0) = 0.00	 y(1,0,0) = 1.00	 
y(0,2,0) = 0.00	 y(2,0,0) = 1.00	 
y(1,2,0) = 1.00	 y(2,1,0) = 0.00	 
y(0,1,1) = 0.56	 y(1,0,1) = 0.44	 
y(0,2,1) = 0.52	 y(2,0,1) = 0.48	 
y(1,2,1) = 0.56	 y(2,1,1) = 0.44	 
y(0,1,2) = 0.88	 y(1,0,2) = 0.12	 
y(0,2,2) = 0.44	 y(2,0,2) = 0.56	 
y(1,2,2) = 0.12	 y(2,1,2) = 0.88	 
obj:  1.055877165169664
erro
[(0, 1), (1, 1), (2, 1)]
cliques:  0 mip: 33
C:  24.18206469825051
x(0,0) = 23.18	 x(0,1) = 4.83	 x(0,2) = 11.83	 
x(1,0) = 14.18	 x(1,1) = 8.96	 x(1,2) = 17.18	 
x(2,0) = 20.11	 x(2,1) = 6.33	 x(2,2) = 14.11	 
y(0,1,0) = 0.00	 y(1,0,0) = 1.00	 
y(0,2,0) = 0.00	 y(2,0,0) = 1.00	 
y(1,2,0) = 1.00	 y(2,1,0) = 0.00	 
y(0,1,1) = 0.76	 y(1,0,1) = 0.24	 
y(0,2,1) = 0.58	 y(2,0,1) = 0.42	 
y(1,2,1) = 0.62	 y(2,1,1) = 0.38	 
y(0,1,2) = 0.93	 y(1,0,2) = 0.07	 
y(0,2,2) = 0.62	 y(2,0,2) = 0.38	 
y(1,2,2) = 0.13	 y(2,1,2) = 0.87	 
obj:  1.0859056199870343
erro
[(0, 1), (1, 1), (2, 1)]
cliques:  0 mip: 48
C:  24.999999999999996
x(0,0) = 24.00	 x(0,1) = 8.00	 x(0,2) = 15.00	 
x(1,0) = 12.16	 x(1,1) = 8.16	 x(1,2) = 15.16	 
x(2,0) = 16.88	 x(2,1) = 3.88	 x(2,2) = 10.88	 
y(0,1,0) = 0.00	 y(1,0,0) = 1.00	 
y(0,2,0) = 0.00	 y(2,0,0) = 1.00	 
y(1,2,0) = 1.00	 y(2,1,0) = 0.00	 
y(0,1,1) = 0.43	 y(1,0,1) = 0.57	 
y(0,2,1) = 0.12	 y(2,0,1) = 0.88	 
y(1,2,1) = 0.15	 y(2,1,1) = 0.85	 
y(0,1,2) = 0.73	 y(1,0,2) = 0.27	 
y(0,2,2) = 0.29	 y(2,0,2) = 0.71	 
y(1,2,2) = 0.09	 y(2,1,2) = 0.91	 
obj:  1.1027646250092156
erro
[(0, 1), (1, 1), (2, 1)]
cliques:  0 mip: 37
C:  25.000000000000004
x(0,0) = 24.00	 x(0,1) = 5.13	 x(0,2) = 12.13	 
x(1,0) = 14.54	 x(1,1) = 10.54	 x(1,2) = 17.54	 
x(2,0) = 17.91	 x(2,1) = 4.80	 x(2,2) = 11.91	 
y(0,1,0) = 0.00	 y(1,0,0) = 1.00	 
y(0,2,0) = 0.00	 y(2,0,0) = 1.00	 
y(1,2,0) = 1.00	 y(2,1,0) = 0.00	 
y(0,1,1) = 0.91	 y(1,0,1) = 0.09	 
y(0,2,1) = 0.27	 y(2,0,1) = 0.73	 
y(1,2,1) = 0.17	 y(2,1,1) = 0.83	 
y(0,1,2) = 0.84	 y(1,0,2) = 0.16	 
y(0,2,2) = 0.70	 y(2,0,2) = 0.30	 
y(1,2,2) = 0.06	 y(2,1,2) = 0.94	 
obj:  1.0225089713698865
erro
[(0, 1), (1, 2), (0, 2), (2, 1), (2, 2), (1, 1)]
cliques:  0 mip: 38
C:  25.0
x(0,0) = 24.00	 x(0,1) = 8.06	 x(0,2) = 15.06	 
x(1,0) = 12.12	 x(1,1) = 8.06	 x(1,2) = 15.12	 
x(2,0) = 17.34	 x(2,1) = 3.94	 x(2,2) = 11.34	 
y(0,1,0) = 0.00	 y(1,0,0) = 1.00	 
y(0,2,0) = 0.00	 y(2,0,0) = 1.00	 
y(1,2,0) = 1.00	 y(2,1,0) = 0.00	 
y(0,1,1) = 0.41	 y(1,0,1) = 0.59	 
y(0,2,1) = 0.12	 y(2,0,1) = 0.88	 
y(1,2,1) = 0.16	 y(2,1,1) = 0.84	 
y(0,1,2) = 0.65	 y(1,0,2) = 0.35	 
y(0,2,2) = 0.28	 y(2,0,2) = 0.72	 
y(1,2,2) = 0.09	 y(2,1,2) = 0.91	 
obj:  1.1069107897777817
erro
[(0, 1), (1, 1), (2, 1)]
cliques:  0 mip: 39
C:  25.0
x(0,0) = 24.00	 x(0,1) = 7.68	 x(0,2) = 14.68	 
x(1,0) = 12.31	 x(1,1) = 8.31	 x(1,2) = 15.31	 
x(2,0) = 18.15	 x(2,1) = 3.68	 x(2,2) = 12.15	 
y(0,1,0) = 0.00	 y(1,0,0) = 1.00	 
y(0,2,0) = 0.00	 y(2,0,0) = 1.00	 
y(1,2,0) = 1.00	 y(2,1,0) = 0.00	 
y(0,1,1) = 0.46	 y(1,0,1) = 0.54	 
y(0,2,1) = 0.14	 y(2,0,1) = 0.86	 
y(1,2,1) = 0.09	 y(2,1,1) = 0.91	 
y(0,1,2) = 0.55	 y(1,0,2) = 0.45	 
y(0,2,2) = 0.33	 y(2,0,2) = 0.67	 
y(1,2,2) = 0.20	 y(2,1,2) = 0.80	 
obj:  1.0733924313003673
erro
[(0, 1), (1, 1), (2, 1)]
cliques:  0 mip: 38
C:  25.000000000000004
x(0,0) = 24.00	 x(0,1) = 4.80	 x(0,2) = 11.89	 
x(1,0) = 15.00	 x(1,1) = 10.80	 x(1,2) = 18.00	 
x(2,0) = 18.15	 x(2,1) = 4.03	 x(2,2) = 12.15	 
y(0,1,0) = 0.00	 y(1,0,0) = 1.00	 
y(0,2,0) = 0.00	 y(2,0,0) = 1.00	 
y(1,2,0) = 1.00	 y(2,1,0) = 0.00	 
y(0,1,1) = 0.96	 y(1,0,1) = 0.04	 
y(0,2,1) = 0.34	 y(2,0,1) = 0.66	 
y(1,2,1) = 0.43	 y(2,1,1) = 0.57	 
y(0,1,2) = 0.83	 y(1,0,2) = 0.17	 
y(0,2,2) = 0.73	 y(2,0,2) = 0.27	 
y(1,2,2) = 0.13	 y(2,1,2) = 0.87	 
obj:  1.0
erro
[(0, 1), (1, 1), (2, 1)]
cliques:  0 mip: 36
C:  25.0
x(0,0) = 24.00	 x(0,1) = 2.94	 x(0,2) = 9.94	 
x(1,0) = 14.46	 x(1,1) = 10.46	 x(1,2) = 18.00	 
x(2,0) = 19.08	 x(2,1) = 6.08	 x(2,2) = 13.08	 
y(0,1,0) = 0.00	 y(1,0,0) = 1.00	 
y(0,2,0) = 0.00	 y(2,0,0) = 1.00	 
y(1,2,0) = 1.00	 y(2,1,0) = 0.00	 
y(0,1,1) = 0.89	 y(1,0,1) = 0.11	 
y(0,2,1) = 0.58	 y(2,0,1) = 0.42	 
y(1,2,1) = 0.64	 y(2,1,1) = 0.36	 
y(0,1,2) = 0.87	 y(1,0,2) = 0.13	 
y(0,2,2) = 0.78	 y(2,0,2) = 0.22	 
y(1,2,2) = 0.18	 y(2,1,2) = 0.82	 
obj:  1.0
erro
[(0, 1), (1, 1), (2, 1)]
cliques:  0 mip: 37
C:  25.0
x(0,0) = 24.00	 x(0,1) = 4.63	 x(0,2) = 11.63	 
x(1,0) = 14.07	 x(1,1) = 10.07	 x(1,2) = 17.36	 
x(2,0) = 17.72	 x(2,1) = 4.62	 x(2,2) = 11.72	 
y(0,1,0) = 0.00	 y(1,0,0) = 1.00	 
y(0,2,0) = 0.00	 y(2,0,0) = 1.00	 
y(1,2,0) = 1.00	 y(2,1,0) = 0.00	 
y(0,1,1) = 0.94	 y(1,0,1) = 0.06	 
y(0,2,1) = 0.55	 y(2,0,1) = 0.45	 
y(1,2,1) = 0.11	 y(2,1,1) = 0.89	 
y(0,1,2) = 0.93	 y(1,0,2) = 0.07	 
y(0,2,2) = 0.59	 y(2,0,2) = 0.41	 
y(1,2,2) = 0.05	 y(2,1,2) = 0.95	 
obj:  0.9999999999999999
erro
[(0, 1), (1, 1), (2, 1)]
cliques:  0 mip: 39
C:  25.0
x(0,0) = 24.00	 x(0,1) = 5.00	 x(0,2) = 15.81	 
x(1,0) = 14.51	 x(1,1) = 10.51	 x(1,2) = 17.51	 
x(2,0) = 17.15	 x(2,1) = 4.15	 x(2,2) = 11.15	 
y(0,1,0) = 0.00	 y(1,0,0) = 1.00	 
y(0,2,0) = 0.00	 y(2,0,0) = 1.00	 
y(1,2,0) = 0.97	 y(2,1,0) = 0.03	 
y(0,1,1) = 0.90	 y(1,0,1) = 0.10	 
y(0,2,1) = 0.53	 y(2,0,1) = 0.47	 
y(1,2,1) = 0.07	 y(2,1,1) = 0.93	 
y(0,1,2) = 0.60	 y(1,0,2) = 0.40	 
y(0,2,2) = 0.17	 y(2,0,2) = 0.83	 
y(1,2,2) = 0.16	 y(2,1,2) = 0.84	 
obj:  1.0100375578435115
erro
[(0, 1), (1, 1), (2, 1)]
cliques:  0 mip: 39
C:  24.999999999999993
x(0,0) = 24.00	 x(0,1) = 6.19	 x(0,2) = 14.04	 
x(1,0) = 15.00	 x(1,1) = 9.51	 x(1,2) = 18.00	 
x(2,0) = 18.00	 x(2,1) = 5.00	 x(2,2) = 12.00	 
y(0,1,0) = 0.00	 y(1,0,0) = 1.00	 
y(0,2,0) = 0.00	 y(2,0,0) = 1.00	 
y(1,2,0) = 1.00	 y(2,1,0) = 0.00	 
y(0,1,1) = 0.70	 y(1,0,1) = 0.30	 
y(0,2,1) = 0.23	 y(2,0,1) = 0.77	 
y(1,2,1) = 0.44	 y(2,1,1) = 0.56	 
y(0,1,2) = 0.81	 y(1,0,2) = 0.19	 
y(0,2,2) = 0.42	 y(2,0,2) = 0.58	 
y(1,2,2) = 0.11	 y(2,1,2) = 0.89	 
obj:  1.108192841393029
erro
[(0, 1), (1, 1), (2, 1)]
cliques:  0 mip: 26
C:  24.999999999999993
x(0,0) = 24.00	 x(0,1) = 8.17	 x(0,2) = 15.17	 
x(1,0) = 12.38	 x(1,1) = 7.97	 x(1,2) = 18.00	 
x(2,0) = 16.74	 x(2,1) = 3.15	 x(2,2) = 10.74	 
y(0,1,0) = 0.00	 y(1,0,0) = 1.00	 
y(0,2,0) = 0.00	 y(2,0,0) = 1.00	 
y(1,2,0) = 1.00	 y(2,1,0) = 0.00	 
y(0,1,1) = 0.39	 y(1,0,1) = 0.61	 
y(0,2,1) = 0.14	 y(2,0,1) = 0.86	 
y(1,2,1) = 0.34	 y(2,1,1) = 0.66	 
y(0,1,2) = 0.83	 y(1,0,2) = 0.17	 
y(0,2,2) = 0.26	 y(2,0,2) = 0.74	 
y(1,2,2) = 0.08	 y(2,1,2) = 0.92	 
obj:  1.0584220723145357
erro
[(0, 1), (1, 1), (2, 1)]
cliques:  0 mip: 40
C:  25.0
x(0,0) = 24.00	 x(0,1) = 6.71	 x(0,2) = 17.00	 
x(1,0) = 13.33	 x(1,1) = 9.33	 x(1,2) = 18.00	 
x(2,0) = 16.33	 x(2,1) = 3.14	 x(2,2) = 10.33	 
y(0,1,0) = 0.00	 y(1,0,0) = 1.00	 
y(0,2,0) = 0.00	 y(2,0,0) = 1.00	 
y(1,2,0) = 1.00	 y(2,1,0) = 0.00	 
y(0,1,1) = 0.67	 y(1,0,1) = 0.33	 
y(0,2,1) = 0.14	 y(2,0,1) = 0.86	 
y(1,2,1) = 0.52	 y(2,1,1) = 0.48	 
y(0,1,2) = 0.76	 y(1,0,2) = 0.24	 
y(0,2,2) = 0.00	 y(2,0,2) = 1.00	 
y(1,2,2) = 0.07	 y(2,1,2) = 0.93	 
obj:  1.0119150281725418
erro
[(0, 1), (1, 1), (2, 1)]
cliques:  0 mip: 32
C:  25.0
x(0,0) = 24.00	 x(0,1) = 3.54	 x(0,2) = 11.25	 
x(1,0) = 15.00	 x(1,1) = 10.87	 x(1,2) = 18.00	 
x(2,0) = 20.69	 x(2,1) = 7.55	 x(2,2) = 14.69	 
y(0,1,0) = 0.00	 y(1,0,0) = 1.00	 
y(0,2,0) = 0.00	 y(2,0,0) = 1.00	 
y(1,2,0) = 1.00	 y(2,1,0) = 0.00	 
y(0,1,1) = 0.97	 y(1,0,1) = 0.03	 
y(0,2,1) = 0.61	 y(2,0,1) = 0.39	 
y(1,2,1) = 0.68	 y(2,1,1) = 0.32	 
y(0,1,2) = 0.61	 y(1,0,2) = 0.39	 
y(0,2,2) = 0.82	 y(2,0,2) = 0.18	 
y(1,2,2) = 0.16	 y(2,1,2) = 0.84	 
obj:  1.0728182053695197
erro
[(1, 2), (0, 1), (0, 0), (2, 1), (2, 0), (1, 1), (2, 2), (1, 0), (0, 2)]
cliques:  0 mip: 38
C:  25.0
x(0,0) = 24.00	 x(0,1) = 3.66	 x(0,2) = 12.87	 
x(1,0) = 13.18	 x(1,1) = 9.18	 x(1,2) = 18.00	 
x(2,0) = 19.31	 x(2,1) = 6.31	 x(2,2) = 13.31	 
y(0,1,0) = 0.00	 y(1,0,0) = 1.00	 
y(0,2,0) = 0.00	 y(2,0,0) = 1.00	 
y(1,2,0) = 1.00	 y(2,1,0) = 0.00	 
y(0,1,1) = 0.64	 y(1,0,1) = 0.36	 
y(0,2,1) = 0.51	 y(2,0,1) = 0.49	 
y(1,2,1) = 0.38	 y(2,1,1) = 0.62	 
y(0,1,2) = 0.55	 y(1,0,2) = 0.45	 
y(0,2,2) = 0.57	 y(2,0,2) = 0.43	 
y(1,2,2) = 0.15	 y(2,1,2) = 0.85	 
obj:  1.0148030498329792
erro
[(0, 1), (1, 1), (2, 1)]
cliques:  0 mip: 42
C:  25.0
x(0,0) = 24.00	 x(0,1) = 4.06	 x(0,2) = 12.90	 
x(1,0) = 15.00	 x(1,1) = 8.03	 x(1,2) = 18.00	 
x(2,0) = 19.35	 x(2,1) = 6.35	 x(2,2) = 13.35	 
y(0,1,0) = 0.00	 y(1,0,0) = 1.00	 
y(0,2,0) = 0.00	 y(2,0,0) = 1.00	 
y(1,2,0) = 1.00	 y(2,1,0) = 0.00	 
y(0,1,1) = 0.41	 y(1,0,1) = 0.59	 
y(0,2,1) = 0.47	 y(2,0,1) = 0.53	 
y(1,2,1) = 0.49	 y(2,1,1) = 0.51	 
y(0,1,2) = 0.55	 y(1,0,2) = 0.45	 
y(0,2,2) = 0.59	 y(2,0,2) = 0.41	 
y(1,2,2) = 0.16	 y(2,1,2) = 0.84	 
obj:  0.9999999999999997
erro
[(0, 1), (1, 1), (2, 1)]
cliques:  0 mip: 38
C:  25.000000000000004
x(0,0) = 24.00	 x(0,1) = 4.76	 x(0,2) = 11.76	 
x(1,0) = 15.00	 x(1,1) = 7.98	 x(1,2) = 18.00	 
x(2,0) = 19.71	 x(2,1) = 6.71	 x(2,2) = 13.71	 
y(0,1,0) = 0.00	 y(1,0,0) = 1.00	 
y(0,2,0) = 0.00	 y(2,0,0) = 1.00	 
y(1,2,0) = 0.57	 y(2,1,0) = 0.43	 
y(0,1,1) = 0.47	 y(1,0,1) = 0.53	 
y(0,2,1) = 0.44	 y(2,0,1) = 0.56	 
y(1,2,1) = 0.69	 y(2,1,1) = 0.31	 
y(0,1,2) = 0.66	 y(1,0,2) = 0.34	 
y(0,2,2) = 0.75	 y(2,0,2) = 0.25	 
y(1,2,2) = 0.14	 y(2,1,2) = 0.86	 
obj:  1.068281693861729
erro
[(0, 1), (1, 1), (2, 1)]
cliques:  0 mip: 40
C:  25.0
x(0,0) = 24.00	 x(0,1) = 3.24	 x(0,2) = 10.24	 
x(1,0) = 12.98	 x(1,1) = 8.98	 x(1,2) = 18.00	 
x(2,0) = 20.60	 x(2,1) = 7.60	 x(2,2) = 14.60	 
y(0,1,0) = 0.00	 y(1,0,0) = 1.00	 
y(0,2,0) = 0.00	 y(2,0,0) = 1.00	 
y(1,2,0) = 0.77	 y(2,1,0) = 0.23	 
y(0,1,1) = 0.64	 y(1,0,1) = 0.36	 
y(0,2,1) = 0.54	 y(2,0,1) = 0.46	 
y(1,2,1) = 0.58	 y(2,1,1) = 0.42	 
y(0,1,2) = 0.71	 y(1,0,2) = 0.29	 
y(0,2,2) = 0.89	 y(2,0,2) = 0.11	 
y(1,2,2) = 0.28	 y(2,1,2) = 0.72	 
obj:  1.0647775191145352
erro
[(0, 1), (1, 1), (2, 1)]
cliques:  0 mip: 42
C:  25.000000000000004
x(0,0) = 24.00	 x(0,1) = 4.58	 x(0,2) = 12.17	 
x(1,0) = 12.75	 x(1,1) = 8.75	 x(1,2) = 18.00	 
x(2,0) = 19.14	 x(2,1) = 6.14	 x(2,2) = 13.14	 
y(0,1,0) = 0.00	 y(1,0,0) = 1.00	 
y(0,2,0) = 0.00	 y(2,0,0) = 1.00	 
y(1,2,0) = 0.44	 y(2,1,0) = 0.56	 
y(0,1,1) = 0.55	 y(1,0,1) = 0.45	 
y(0,2,1) = 0.45	 y(2,0,1) = 0.55	 
y(1,2,1) = 0.39	 y(2,1,1) = 0.61	 
y(0,1,2) = 0.63	 y(1,0,2) = 0.37	 
y(0,2,2) = 0.56	 y(2,0,2) = 0.44	 
y(1,2,2) = 0.22	 y(2,1,2) = 0.78	 
obj:  1.0481314091556175
erro
[(0, 1), (1, 1), (2, 1)]
cliques:  0 mip: 44
C:  25.000000000000004
x(0,0) = 24.00	 x(0,1) = 3.46	 x(0,2) = 10.83	 
x(1,0) = 15.00	 x(1,1) = 9.46	 x(1,2) = 18.00	 
x(2,0) = 19.21	 x(2,1) = 6.21	 x(2,2) = 13.21	 
y(0,1,0) = 0.00	 y(1,0,0) = 1.00	 
y(0,2,0) = 0.00	 y(2,0,0) = 1.00	 
y(1,2,0) = 1.00	 y(2,1,0) = 0.00	 
y(0,1,1) = 0.69	 y(1,0,1) = 0.31	 
y(0,2,1) = 0.65	 y(2,0,1) = 0.35	 
y(1,2,1) = 0.34	 y(2,1,1) = 0.66	 
y(0,1,2) = 0.76	 y(1,0,2) = 0.24	 
y(0,2,2) = 0.73	 y(2,0,2) = 0.27	 
y(1,2,2) = 0.18	 y(2,1,2) = 0.82	 
obj:  1.0052050149185852
erro
[(0, 1), (1, 1), (2, 1)]
cliques:  0 mip: 39
C:  25.000000000000004
x(0,0) = 24.00	 x(0,1) = 3.27	 x(0,2) = 10.27	 
x(1,0) = 15.00	 x(1,1) = 8.13	 x(1,2) = 18.00	 
x(2,0) = 20.31	 x(2,1) = 7.31	 x(2,2) = 14.31	 
y(0,1,0) = 0.00	 y(1,0,0) = 1.00	 
y(0,2,0) = 0.00	 y(2,0,0) = 1.00	 
y(1,2,0) = 0.41	 y(2,1,0) = 0.59	 
y(0,1,1) = 0.43	 y(1,0,1) = 0.57	 
y(0,2,1) = 0.53	 y(2,0,1) = 0.47	 
y(1,2,1) = 0.53	 y(2,1,1) = 0.47	 
y(0,1,2) = 0.67	 y(1,0,2) = 0.33	 
y(0,2,2) = 0.86	 y(2,0,2) = 0.14	 
y(1,2,2) = 0.20	 y(2,1,2) = 0.80	 
obj:  1.0151067403376066
erro
[(0, 1), (1, 1), (2, 1)]
cliques:  0 mip: 40
C:  25.000000000000007
x(0,0) = 24.00	 x(0,1) = 3.03	 x(0,2) = 11.12	 
x(1,0) = 15.00	 x(1,1) = 8.05	 x(1,2) = 18.00	 
x(2,0) = 20.47	 x(2,1) = 7.47	 x(2,2) = 14.47	 
y(0,1,0) = 0.00	 y(1,0,0) = 1.00	 
y(0,2,0) = 0.00	 y(2,0,0) = 1.00	 
y(1,2,0) = 0.65	 y(2,1,0) = 0.35	 
y(0,1,1) = 0.81	 y(1,0,1) = 0.19	 
y(0,2,1) = 0.57	 y(2,0,1) = 0.43	 
y(1,2,1) = 0.68	 y(2,1,1) = 0.32	 
y(0,1,2) = 0.53	 y(1,0,2) = 0.47	 
y(0,2,2) = 0.84	 y(2,0,2) = 0.16	 
y(1,2,2) = 0.30	 y(2,1,2) = 0.70	 
obj:  1.0069673884733015
erro
[(1, 2), (0, 1), (0, 0), (2, 1), (2, 0), (1, 1), (2, 2), (1, 0), (0, 2)]
cliques:  0 mip: 42
C:  25.000000000000007
x(0,0) = 24.00	 x(0,1) = 4.19	 x(0,2) = 12.64	 
x(1,0) = 12.88	 x(1,1) = 8.88	 x(1,2) = 18.00	 
x(2,0) = 18.73	 x(2,1) = 5.73	 x(2,2) = 12.73	 
y(0,1,0) = 0.00	 y(1,0,0) = 1.00	 
y(0,2,0) = 0.00	 y(2,0,0) = 1.00	 
y(1,2,0) = 0.60	 y(2,1,0) = 0.40	 
y(0,1,1) = 0.58	 y(1,0,1) = 0.42	 
y(0,2,1) = 0.40	 y(2,0,1) = 0.60	 
y(1,2,1) = 0.50	 y(2,1,1) = 0.50	 
y(0,1,2) = 0.80	 y(1,0,2) = 0.20	 
y(0,2,2) = 0.62	 y(2,0,2) = 0.38	 
y(1,2,2) = 0.23	 y(2,1,2) = 0.77	 
obj:  1.0
erro
[(0, 1), (1, 1), (2, 1)]
cliques:  0 mip: 0
iterações: 27 cortes cliques encontrados: 3 mip: 1026 objective:  25.000000000000007
Coin0506I Presolve 65 (-61) rows, 39 (-25) columns and 202 (-86) elements
Clp1000I sum of infeasibilities 3.24924e-06 - average 4.99884e-08, 0 fixed columns
Coin0506I Presolve 65 (0) rows, 39 (0) columns and 202 (0) elements
Clp0029I End of values pass after 39 iterations
Clp0000I Optimal - objective value 15
Clp0000I Optimal - objective value 15
Coin0511I After Postsolve, objective 15, infeasibilities - dual 0 (0), primal 0 (0)
Clp0000I Optimal - objective value 15
Clp0000I Optimal - objective value 15
Clp0000I Optimal - objective value 15
Coin0511I After Postsolve, objective 15, infeasibilities - dual 0 (0), primal 0 (0)
Clp0032I Optimal objective 15 - 0 iterations time 0.002, Presolve 0.00, Idiot 0.00
Coin3009W Conflict graph built in 0.000 seconds, density: 0.147%
